p cnf 56 84
7
8
9
10
11
8
13
14
15
16
9
14
19
20
21
10
15
20
25
26
11
16
21
26
31
-1 -2 8
-1 -3 9
-1 -4 10
-1 -5 11
-2 -1 8
-2 -3 14
-2 -4 15
-2 -5 16
-3 -1 9
-3 -2 14
-3 -4 20
-3 -5 21
-4 -1 10
-4 -2 15
-4 -3 20
-4 -5 26
-5 -1 11
-5 -2 16
-5 -3 21
-5 -4 26
-32 37
-33 38
-34 39
-35 40
-36 41
-37 42
-38 43
-39 44
-40 45
-41 46
-42 47
-43 48
-44 49
-45 50
-46 51
-47 52
-48 53
-49 54
-50 55
-51 56
32 -1
-32 1
-2 -32 38
-2 -33 39
-2 -34 40
-2 -35 41
-3 -37 43
-3 -38 44
-3 -39 45
-3 -40 46
-4 -42 48
-4 -43 49
-4 -44 50
-4 -45 51
-5 -47 53
-5 -48 54
-5 -49 55
-5 -50 56
56
